networks/zoo_46_203/zoo_46_203.sol
<?xml version = "1.0" encoding="UTF-8" standalone="yes"?>
<CPLEXSolution version="1.2">
 <header
   problemName="networks/zoo_46_203/zoo_46_203.lp"
   solutionName="incumbent"
   solutionIndex="-1"
   objectiveValue="22"
   solutionTypeValue="3"
   solutionTypeString="primal"
   solutionStatusValue="101"
   solutionStatusString="integer optimal solution"
   solutionMethodString="mip"
   primalFeasible="1"
   dualFeasible="1"
   MIPNodes="4040"
   MIPIterations="324545"
   writeLevel="3"/>
 <quality
   epInt="1.0000000000000001e-05"
   epRHS="9.9999999999999995e-07"
   maxIntInfeas="0"
   maxPrimalInfeas="0"
   maxX="4"
   maxSlack="10"/>
 <variables>
  <variable name="Y(25,22)" index="1028" value="1"/>
  <variable name="Y(28,23)" index="1155" value="1"/>
  <variable name="Y(48,2)" index="1975" value="1"/>
  <variable name="Y(53,6)" index="2188" value="1"/>
  <variable name="Y(58,16)" index="2408" value="1"/>
  <variable name="Y(75,15)" index="3121" value="1"/>
  <variable name="Y(78,18)" index="3250" value="1"/>
  <variable name="Y(87,4)" index="3615" value="1"/>
  <variable name="Y(93,14)" index="3876" value="1"/>
  <variable name="Y(108,10)" index="4502" value="1"/>
  <variable name="Y(116,3)" index="4832" value="1"/>
  <variable name="Y(118,8)" index="4920" value="1"/>
  <variable name="Y(122,19)" index="5099" value="1"/>
  <variable name="Y(130,9)" index="5425" value="1"/>
  <variable name="Y(136,20)" index="5688" value="1"/>
  <variable name="Y(138,22)" index="5774" value="1"/>
  <variable name="Y(148,13)" index="6185" value="1"/>
  <variable name="Y(157,1)" index="6552" value="1"/>
  <variable name="Y(167,21)" index="6991" value="1"/>
  <variable name="Y(171,6)" index="7144" value="1"/>
  <variable name="Y(172,7)" index="7187" value="1"/>
  <variable name="Y(178,17)" index="7449" value="1"/>
  <variable name="X(1,2,172)" index="8697" value="1"/>
  <variable name="X(1,4,87)" index="8815" value="1"/>
  <variable name="X(1,24,157)" index="9088" value="1"/>
  <variable name="X(2,1,87)" index="9221" value="1"/>
  <variable name="X(2,7,172)" index="9509" value="1"/>
  <variable name="X(2,25,48)" index="9588" value="1"/>
  <variable name="X(3,4,157)" index="9900" value="1"/>
  <variable name="X(3,22,78)" index="10024" value="1"/>
  <variable name="X(3,26,116)" index="10265" value="1"/>
  <variable name="X(4,1,157)" index="10509" value="1"/>
  <variable name="X(4,3,116)" index="10671" value="1"/>
  <variable name="X(4,27,87)" index="10845" value="1"/>
  <variable name="X(6,8,118)" index="11079" value="1"/>
  <variable name="X(6,9,53)" index="11217" value="1"/>
  <variable name="X(6,29,171)" index="11538" value="1"/>
  <variable name="X(7,2,48)" index="11618" value="1"/>
  <variable name="X(7,8,171)" index="11944" value="1"/>
  <variable name="X(7,30,172)" index="12148" value="1"/>
  <variable name="X(8,6,171)" index="12350" value="1"/>
  <variable name="X(8,7,48)" index="12430" value="1"/>
  <variable name="X(8,31,118)" index="12703" value="1"/>
  <variable name="X(9,6,118)" index="12906" value="1"/>
  <variable name="X(9,10,108)" index="13099" value="1"/>
  <variable name="X(9,32,130)" index="13324" value="1"/>
  <variable name="X(10,9,130)" index="13527" value="1"/>
  <variable name="X(10,13,75)" index="13675" value="1"/>
  <variable name="X(10,33,108)" index="13911" value="1"/>
  <variable name="X(11,9,108)" index="14114" value="1"/>
  <variable name="X(12,9,118)" index="14327" value="1"/>
  <variable name="X(13,10,130)" index="14542" value="1"/>
  <variable name="X(13,15,75)" index="14690" value="1"/>
  <variable name="X(13,36,148)" index="14966" value="1"/>
  <variable name="X(14,15,148)" index="15169" value="1"/>
  <variable name="X(14,23,58)" index="15282" value="1"/>
  <variable name="X(14,37,93)" index="15520" value="1"/>
  <variable name="X(15,13,148)" index="15778" value="1"/>
  <variable name="X(15,14,93)" index="15926" value="1"/>
  <variable name="X(15,38,75)" index="16111" value="1"/>
  <variable name="X(16,17,122)" index="16361" value="1"/>
  <variable name="X(16,23,28)" index="16470" value="1"/>
  <variable name="X(16,39,58)" index="16703" value="1"/>
  <variable name="X(17,16,28)" index="16876" value="1"/>
  <variable name="X(17,18,122)" index="17173" value="1"/>
  <variable name="X(17,40,178)" index="17432" value="1"/>
  <variable name="X(18,17,178)" index="17635" value="1"/>
  <variable name="X(18,19,122)" index="17782" value="1"/>
  <variable name="X(18,41,78)" index="17941" value="1"/>
  <variable name="X(19,18,78)" index="18144" value="1"/>
  <variable name="X(19,21,138)" index="18407" value="1"/>
  <variable name="X(19,42,122)" index="18594" value="1"/>
  <variable name="X(20,21,167)" index="18842" value="1"/>
  <variable name="X(20,22,157)" index="19035" value="1"/>
  <variable name="X(20,43,136)" index="19217" value="1"/>
  <variable name="X(21,19,78)" index="19362" value="1"/>
  <variable name="X(21,20,136)" index="19623" value="1"/>
  <variable name="X(21,22,138)" index="19828" value="1"/>
  <variable name="X(21,44,167)" index="20060" value="1"/>
  <variable name="X(22,3,157)" index="20253" value="1"/>
  <variable name="X(22,20,25)" index="20324" value="1"/>
  <variable name="X(22,21,78)" index="20580" value="1"/>
  <variable name="X(22,45,138)" index="20843" value="1"/>
  <variable name="X(23,14,148)" index="21056" value="1"/>
  <variable name="X(23,16,58)" index="21169" value="1"/>
  <variable name="X(23,46,28)" index="21342" value="1"/>
  <variable name="C(28,16)" index="21678" value="1"/>
  <variable name="C(28,23)" index="21679" value="2"/>
  <variable name="C(48,7)" index="21793" value="1"/>
  <variable name="C(48,2)" index="21794" value="2"/>
  <variable name="C(58,23)" index="21839" value="1"/>
  <variable name="C(58,16)" index="21840" value="2"/>
  <variable name="C(75,13)" index="21938" value="1"/>
  <variable name="C(75,15)" index="21939" value="2"/>
  <variable name="C(78,22)" index="21965" value="1"/>
  <variable name="C(78,21)" index="21966" value="2"/>
  <variable name="C(78,19)" index="21967" value="3"/>
  <variable name="C(78,18)" index="21968" value="4"/>
  <variable name="C(87,1)" index="22037" value="1"/>
  <variable name="C(87,4)" index="22038" value="2"/>
  <variable name="C(93,14)" index="22058" value="1"/>
  <variable name="C(108,9)" index="22151" value="1"/>
  <variable name="C(108,10)" index="22152" value="2"/>
  <variable name="C(116,3)" index="22227" value="1"/>
  <variable name="C(118,9)" index="22232" value="1"/>
  <variable name="C(118,6)" index="22233" value="2"/>
  <variable name="C(118,8)" index="22234" value="3"/>
  <variable name="C(122,17)" index="22260" value="1"/>
  <variable name="C(122,18)" index="22261" value="2"/>
  <variable name="C(122,19)" index="22262" value="3"/>
  <variable name="C(130,10)" index="22318" value="1"/>
  <variable name="C(130,9)" index="22319" value="2"/>
  <variable name="C(136,20)" index="22353" value="1"/>
  <variable name="C(138,21)" index="22371" value="1"/>
  <variable name="C(138,22)" index="22372" value="2"/>
  <variable name="C(148,14)" index="22446" value="1"/>
  <variable name="C(148,15)" index="22447" value="2"/>
  <variable name="C(148,13)" index="22448" value="3"/>
  <variable name="C(157,22)" index="22483" value="1"/>
  <variable name="C(157,3)" index="22484" value="2"/>
  <variable name="C(157,4)" index="22485" value="3"/>
  <variable name="C(157,1)" index="22486" value="4"/>
  <variable name="C(167,21)" index="22553" value="1"/>
  <variable name="C(171,8)" index="22571" value="1"/>
  <variable name="C(171,6)" index="22572" value="2"/>
  <variable name="C(172,2)" index="22578" value="1"/>
  <variable name="C(172,7)" index="22579" value="2"/>
  <variable name="C(178,17)" index="22623" value="1"/>
 </variables>
</CPLEXSolution>
